$comment
https://talk.q-chem.com/t/geometry-optimization-with-constrained-dft/156/14
@jherbert
$end

$molecule
1 2
C 0.00000 0.00000 1.00000
C 0.00000 1.33200 1.00000
H -0.92878 -0.57430 1.00000
H 0.92878 -0.57430 1.00000
H 0.92878 1.90630 1.00000
H -0.92878 1.90630 1.00000
C 0.00000 -0.00000 5.00000
C -0.00000 1.33200 5.00000
H 0.92878 -0.57430 5.00000
H -0.92878 -0.57430 5.00000
H -0.92878 1.90630 5.00000
H 0.92878 1.90630 5.00000
$end

$rem
JOBTYPE OPT
METHOD wB97X-D
BASIS 6-31G(D)
UNRESTRICTED TRUE
MAX_SCF_CYCLES 100
SCF_ALGORITHM DIIS
SCF_CONVERGENCE 8
THRESH 14
SYMMETRY FALSE
SYM_IGNORE TRUE
SCF_FINAL_PRINT 1
CDFT TRUE
CDFT_THRESH 7
MEM_TOTAL 8000
MEM_STATIC 2000
SCF_GUESS SAD
$end

$cdft
-1.0
1.0 1 6
1.0
1.0 1 6 s
$end

